\ SCIP STATISTICS
\   Problem name     : glass4
\   Variables        : 322 (302 binary, 0 integer, 0 implicit integer, 20 continuous)
\   Constraints      : 396
Minimize
 Obj: +2 x3 +2 x4 +2 x5 +2 x6 +2 x7 +2 x8 +2 x9 +1000000 x10 +1 x11 +1 x12 +1 x13 +1 x14 +1 x15 +1 x16
      +1 x17 +1 x18 +1 x19 +2 x1 +2 x2
Subject to
 c1: -1 x1 +1 x10 >= +700
 c2: -1 x2 +1 x10 >= +500
 c3: -1 x3 +1 x10 >= +200
 c4: -1 x4 +1 x10 >= +200
 c5: -1 x5 +1 x10 >= +500
 c6: -1 x6 +1 x10 >= +300
 c7: -1 x7 +1 x10 >= +100
 c8: -1 x8 +1 x10 >= +500
 c9: -1 x9 +1 x10 >= +300
 c10: +200 x11 -200 x12 -8400000 x21 >= -8360000
 c11: +300 x1 -300 x2 -8400000 x21 >= -8310000
 c12: +700 x11 -700 x12 -8400000 x22 >= -8050000
 c13: -300 x1 +300 x2 +300 x11 -300 x12 -8400000 x23 >= -8130000
 c14: -600 x1 +600 x2 -8400000 x24 >= -7980000
 c15: -300 x11 +300 x12 -8400000 x25 >= -8280000
 c16: -100 x1 +100 x2 -100 x11 +100 x12 -8400000 x25 >= -8320000
 c17: -500 x11 +500 x12 -8400000 x26 >= -8150000
 c18: +100 x1 -100 x2 -50 x11 +50 x12 -8400000 x27 >= -8355000
 c19: -250 x11 +250 x12 -8400000 x27 >= -8300000
 c20: +600 x1 -600 x2 -8400000 x28 >= -8100000
 c21: +1 x21 +1 x22 +1 x23 +1 x24 +1 x25 +1 x26 +1 x27 +1 x28 = +1
 c22: +700 x11 -700 x13 -8400000 x29 >= -7910000
 c23: -200 x1 +200 x3 +400 x11 -400 x13 -8400000 x30 >= -8020000
 c24: -400 x1 +400 x3 -8400000 x31 >= -8040000
 c25: -200 x1 +200 x3 -200 x11 +200 x13 -8400000 x32 >= -8240000
 c26: -300 x1 +300 x3 -8400000 x32 >= -8190000
 c27: -200 x11 +200 x13 -8400000 x33 >= -8320000
 c28: +33.334014893 x1 -33.33401489 x3 -66.66598511 x11 +66.665985107 x13 -8400000 x34 >= -8390000.613
 c29: -133.3340149 x1 +133.33401489 x3 -133.3340149 x11 +133.33401489 x13 -8400000 x34 >= -8293332.789
 c30: -200 x11 +200 x13 -8400000 x35 >= -8300000
 c31: +120 x1 -120 x3 -60 x11 +60 x13 -8400000 x36 >= -8382000
 c32: -20 x1 +20 x3 -40 x11 +40 x13 -8400000 x36 >= -8384000
 c33: -200 x11 +200 x13 -8400000 x37 >= -8320000
 c34: +1100 x1 -1100 x3 -8400000 x38 >= -8180000
 c35: +1 x29 +1 x30 +1 x31 +1 x32 +1 x33 +1 x34 +1 x35 +1 x36 +1 x37 +1 x38 = +1
 c36: +1000 x11 -1000 x14 -8400000 x39 >= -8000000
 c37: -200 x1 +200 x4 +100 x11 -100 x14 -8400000 x40 >= -8200000
 c38: -400 x1 +400 x4 -8400000 x41 >= -8040000
 c39: -200 x1 +200 x4 -200 x11 +200 x14 -8400000 x42 >= -8180000
 c40: +100 x1 -100 x4 -200 x11 +200 x14 -8400000 x43 >= -8390000
 c41: -200 x1 +200 x4 -200 x11 +200 x14 -8400000 x43 >= -8240000
 c42: +100 x1 -100 x4 -200 x11 +200 x14 -8400000 x44 >= -8330000
 c43: +40 x1 -40 x4 -20 x11 +20 x14 -8400000 x45 >= -8396000
 c44: -40 x1 +40 x4 -80 x11 +80 x14 -8400000 x45 >= -8368000
 c45: +100 x1 -100 x4 -200 x11 +200 x14 -8400000 x46 >= -8320000
 c46: +700 x1 -700 x4 -8400000 x47 >= -8260000
 c47: +1 x39 +1 x40 +1 x41 +1 x42 +1 x43 +1 x44 +1 x45 +1 x46 +1 x47 = +1
 c48: +1100 x11 -1100 x15 -8400000 x48 >= -7960000
 c49: -200 x1 +200 x5 +200 x11 -200 x15 -8400000 x49 >= -8200000
 c50: -400 x1 +400 x5 -8400000 x50 >= -8080000
 c51: -200 x1 +200 x5 -100 x11 +100 x15 -8400000 x51 >= -8220000
 c52: +100 x1 -100 x5 -200 x11 +200 x15 -8400000 x52 >= -8390000
 c53: -200 x1 +200 x5 -200 x11 +200 x15 -8400000 x52 >= -8240000
 c54: +125 x1 -125 x5 -250 x11 +250 x15 -8400000 x53 >= -8312500
 c55: -25 x1 +25 x5 -50 x11 +50 x15 -8400000 x53 >= -8380000
 c56: +200 x1 -200 x5 -400 x11 +400 x15 -8400000 x54 >= -8240000
 c57: +200 x1 -200 x5 -100 x11 +100 x15 -8400000 x55 >= -8300000
 c58: +400 x1 -400 x5 -8400000 x56 >= -8200000
 c59: +1 x48 +1 x49 +1 x50 +1 x51 +1 x52 +1 x53 +1 x54 +1 x55 +1 x56 = +1
 c60: +1200 x11 -1200 x16 -8400000 x57 >= -7680000
 c61: -800 x1 +800 x6 -8400000 x58 >= -7680000
 c62: -200 x1 +200 x6 -200 x11 +200 x16 -8400000 x59 >= -8180000
 c63: +100 x1 -100 x6 -200 x11 +200 x16 -8400000 x60 >= -8390000
 c64: -200 x1 +200 x6 -200 x11 +200 x16 -8400000 x60 >= -8240000
 c65: +166.66598511 x1 -166.6659851 x6 -166.6660004 x11 +166.66600037 x16 -8400000 x61 >= -8366666.795
 c66: -66.66598511 x1 +66.665985107 x6 -133.3339996 x11 +133.33399963 x16 -8400000 x61 >= -8346666.4
 c67: +200 x1 -200 x6 -200 x11 +200 x16 -8400000 x62 >= -8320000
 c68: +300 x1 -300 x6 -8400000 x63 >= -8340000
 c69: +100 x1 -100 x6 -100 x11 +100 x16 -8400000 x63 >= -8390000
 c70: +400 x1 -400 x6 -8400000 x64 >= -8280000
 c71: +1 x57 +1 x58 +1 x59 +1 x60 +1 x61 +1 x62 +1 x63 +1 x64 = +1
 c72: +300 x1 -300 x7 +300 x11 -300 x17 -8400000 x65 >= -8310000
 c73: +700 x11 -700 x17 -8400000 x66 >= -8050000
 c74: -800 x1 +800 x7 -8400000 x67 >= -7680000
 c75: -100 x1 +100 x7 -200 x11 +200 x17 -8400000 x68 >= -8250000
 c76: +66.665985107 x1 -66.66598511 x7 -133.3339844 x11 +133.33398438 x17 -8400000 x69 >= -8393332.596
 c77: -66.66598511 x1 +66.665985107 x7 -66.66601562 x11 +66.666015625 x17 -8400000 x69 >= -8340000.602
 c78: -100 x1 +100 x7 -200 x11 +200 x17 -8400000 x70 >= -8270000
 c79: +200 x1 -200 x7 -100 x11 +100 x17 -8400000 x71 >= -8410000
 c80: -100 x1 +100 x7 -200 x11 +200 x17 -8400000 x71 >= -8320000
 c81: +200 x1 -200 x7 -100 x11 +100 x17 -8400000 x72 >= -8360000
 c82: +400 x1 -400 x7 -8400000 x73 >= -8360000
 c83: +1 x65 +1 x66 +1 x67 +1 x68 +1 x69 +1 x70 +1 x71 +1 x72 +1 x73 = +1
 c84: +200 x1 -200 x8 +200 x11 -200 x18 -8400000 x74 >= -8200000
 c85: +700 x11 -700 x18 -8400000 x75 >= -7910000
 c86: -200 x1 +200 x8 +400 x11 -400 x18 -8400000 x76 >= -8040000
 c87: -200 x1 +200 x8 +200 x11 -200 x18 -8400000 x77 >= -8140000
 c88: -400 x1 +400 x8 -8400000 x78 >= -8000000
 c89: -300 x1 +300 x8 -300 x11 +300 x18 -8400000 x79 >= -8070000
 c90: +100 x1 -100 x8 -200 x11 +200 x18 -8400000 x80 >= -8390000
 c91: -200 x1 +200 x8 -200 x11 +200 x18 -8400000 x80 >= -8240000
 c92: +100 x1 -100 x8 -200 x11 +200 x18 -8400000 x81 >= -8330000
 c93: +40 x1 -40 x8 -20 x11 +20 x18 -8400000 x82 >= -8396000
 c94: -40 x1 +40 x8 -80 x11 +80 x18 -8400000 x82 >= -8368000
 c95: +100 x1 -100 x8 -200 x11 +200 x18 -8400000 x83 >= -8320000
 c96: +300 x1 -300 x8 -8400000 x84 >= -8340000
 c97: +40 x1 -40 x8 -20 x11 +20 x18 -8400000 x84 >= -8392000
 c98: -40 x1 +40 x8 -80 x11 +80 x18 -8400000 x84 >= -8412000
 c99: +100 x1 -100 x8 -200 x11 +200 x18 -8400000 x85 >= -8370000
 c100: +400 x1 -400 x8 -8400000 x86 >= -8200000
 c101: +1 x74 +1 x75 +1 x76 +1 x77 +1 x78 +1 x79 +1 x80 +1 x81 +1 x82 +1 x83 +1 x84 +1 x85 +1 x86 = +1
 c102: +300 x1 -300 x9 +300 x11 -300 x19 -8400000 x87 >= -8220000
 c103: +700 x11 -700 x19 -8400000 x88 >= -7980000
 c104: -1000 x1 +1000 x9 -8400000 x89 >= -7700000
 c105: +100 x1 -100 x9 -200 x11 +200 x19 -8400000 x90 >= -8390000
 c106: -200 x1 +200 x9 -200 x11 +200 x19 -8400000 x90 >= -8240000
 c107: +166.66598511 x1 -166.6659851 x9 -166.6660004 x11 +166.66600037 x19 -8400000 x91 >= -8366666.795
 c108: -66.66598511 x1 +66.665985107 x9 -133.3339996 x11 +133.33399963 x19 -8400000 x91 >= -8346666.4
 c109: +300 x1 -300 x9 -300 x11 +300 x19 -8400000 x92 >= -8280000
 c110: +400 x1 -400 x9 -8400000 x93 >= -8280000
 c111: +1 x87 +1 x88 +1 x89 +1 x90 +1 x91 +1 x92 +1 x93 = +1
 c112: +500 x12 -500 x13 -8400000 x94 >= -8050000
 c113: -200 x2 +200 x3 +400 x12 -400 x13 -8400000 x95 >= -8060000
 c114: -200 x2 +200 x3 -8400000 x96 >= -8260000
 c115: -200 x2 +200 x3 -200 x12 +200 x13 -8400000 x97 >= -8320000
 c116: -300 x2 +300 x3 -8400000 x97 >= -8250000
 c117: -200 x12 +200 x13 -8400000 x98 >= -8360000
 c118: -300 x2 +300 x3 -8400000 x98 >= -8310000
 c119: -200 x12 +200 x13 -8400000 x99 >= -8300000
 c120: +300 x2 -300 x3 -300 x12 +300 x13 -8400000 x100 >= -8280000
 c121: +900 x2 -900 x3 -8400000 x101 >= -8220000
 c122: +1 x94 +1 x95 +1 x96 +1 x97 +1 x98 +1 x99 +1 x100 +1 x101 = +1
 c123: +800 x12 -800 x14 -8400000 x102 >= -8080000
 c124: -200 x2 +200 x4 +100 x12 -100 x14 -8400000 x103 >= -8240000
 c125: -200 x2 +200 x4 -8400000 x104 >= -8260000
 c126: -200 x2 +200 x4 -200 x12 +200 x14 -8400000 x105 >= -8260000
 c127: -100 x2 +100 x4 -8400000 x105 >= -8350000
 c128: -200 x2 +200 x4 -200 x12 +200 x14 -8400000 x106 >= -8240000
 c129: +100 x2 -100 x4 -200 x12 +200 x14 -8400000 x107 >= -8330000
 c130: +300 x2 -300 x4 -300 x12 +300 x14 -8400000 x108 >= -8310000
 c131: +500 x2 -500 x4 -8400000 x109 >= -8300000
 c132: +1 x102 +1 x103 +1 x104 +1 x105 +1 x106 +1 x107 +1 x108 +1 x109 = +1
 c133: +900 x12 -900 x15 -8400000 x110 >= -8040000
 c134: -200 x2 +200 x5 +200 x12 -200 x15 -8400000 x111 >= -8240000
 c135: -200 x2 +200 x5 -8400000 x112 >= -8280000
 c136: -200 x2 +200 x5 -100 x12 +100 x15 -8400000 x113 >= -8280000
 c137: -100 x12 +100 x15 -8400000 x114 >= -8380000
 c138: -100 x2 +100 x5 -8400000 x114 >= -8360000
 c139: -200 x2 +200 x5 -100 x12 +100 x15 -8400000 x115 >= -8290000
 c140: +200 x2 -200 x5 -400 x12 +400 x15 -8400000 x116 >= -8260000
 c141: +300 x2 -300 x5 -300 x12 +300 x15 -8400000 x117 >= -8280000
 c142: +200 x2 -200 x5 -100 x12 +100 x15 -8400000 x118 >= -8320000
 c143: +200 x2 -200 x5 -8400000 x119 >= -8300000
 c144: +1 x110 +1 x111 +1 x112 +1 x113 +1 x114 +1 x115 +1 x116 +1 x117 +1 x118 +1 x119 = +1
 c145: +1000 x12 -1000 x16 -8400000 x120 >= -7800000
 c146: -600 x2 +600 x6 -8400000 x121 >= -7980000
 c147: -200 x2 +200 x6 -200 x12 +200 x16 -8400000 x122 >= -8260000
 c148: -100 x2 +100 x6 -8400000 x122 >= -8350000
 c149: -200 x2 +200 x6 -200 x12 +200 x16 -8400000 x123 >= -8240000
 c150: +500 x2 -500 x6 -500 x12 +500 x16 -8400000 x124 >= -8300000
 c151: +200 x2 -200 x6 -8400000 x125 >= -8360000
 c152: +66.665985107 x2 -66.66598511 x6 +33.333999634 x12 -33.33399963 x16 -8400000 x126 >= -8380000.004
 c153: +133.33401489 x2 -133.3340149 x6 -133.3339996 x12 +133.33399963 x16 -8400000 x126 >= -8413333.395
 c154: +200 x2 -200 x6 -8400000 x127 >= -8340000
 c155: +1 x120 +1 x121 +1 x122 +1 x123 +1 x124 +1 x125 +1 x126 +1 x127 = +1
 c156: +300 x2 -300 x7 +300 x12 -300 x17 -8400000 x128 >= -8310000
 c157: +500 x12 -500 x17 -8400000 x129 >= -8150000
 c158: -600 x2 +600 x7 -8400000 x130 >= -7980000
 c159: -100 x2 +100 x7 -200 x12 +200 x17 -8400000 x131 >= -8310000
 c160: -200 x2 +200 x7 -8400000 x131 >= -8300000
 c161: -100 x2 +100 x7 -200 x12 +200 x17 -8400000 x132 >= -8270000
 c162: +300 x2 -300 x7 -300 x12 +300 x17 -8400000 x133 >= -8340000
 c163: +200 x2 -200 x7 -100 x12 +100 x17 -8400000 x134 >= -8380000
 c164: +200 x2 -200 x7 -8400000 x135 >= -8380000
 c165: +1 x128 +1 x129 +1 x130 +1 x131 +1 x132 +1 x133 +1 x134 +1 x135 = +1
 c166: +200 x2 -200 x8 +200 x12 -200 x18 -8400000 x136 >= -8200000
 c167: +500 x12 -500 x18 -8400000 x137 >= -8050000
 c168: -200 x2 +200 x8 +400 x12 -400 x18 -8400000 x138 >= -8080000
 c169: -200 x2 +200 x8 +200 x12 -200 x18 -8400000 x139 >= -8180000
 c170: -200 x2 +200 x8 -8400000 x140 >= -8240000
 c171: -200 x2 +200 x8 -200 x12 +200 x18 -8400000 x141 >= -8260000
 c172: -100 x2 +100 x8 -8400000 x141 >= -8340000
 c173: -300 x2 +300 x8 -300 x12 +300 x18 -8400000 x142 >= -8160000
 c174: +100 x2 -100 x8 -200 x12 +200 x18 -8400000 x143 >= -8330000
 c175: +300 x2 -300 x8 -300 x12 +300 x18 -8400000 x144 >= -8310000
 c176: +100 x2 -100 x8 -8400000 x145 >= -8380000
 c177: +300 x2 -300 x8 -300 x12 +300 x18 -8400000 x145 >= -8340000
 c178: +200 x2 -200 x8 -8400000 x146 >= -8300000
 c179: +1 x136 +1 x137 +1 x138 +1 x139 +1 x140 +1 x141 +1 x142 +1 x143 +1 x144 +1 x145 +1 x146 = +1
 c180: +300 x2 -300 x9 +300 x12 -300 x19 -8400000 x147 >= -8220000
 c181: +500 x12 -500 x19 -8400000 x148 >= -8100000
 c182: -800 x2 +800 x9 -8400000 x149 >= -8000000
 c183: -200 x12 +200 x19 -8400000 x150 >= -8360000
 c184: -300 x2 +300 x9 -8400000 x150 >= -8310000
 c185: +600 x2 -600 x9 -600 x12 +600 x19 -8400000 x151 >= -8280000
 c186: +200 x2 -200 x9 -8400000 x152 >= -8340000
 c187: +1 x147 +1 x148 +1 x149 +1 x150 +1 x151 +1 x152 = +1
 c188: +200 x3 -200 x4 +200 x13 -200 x14 -8400000 x153 >= -8340000
 c189: +300 x3 -300 x4 -8400000 x153 >= -8340000
 c190: +500 x13 -500 x14 -8400000 x154 >= -8200000
 c191: -200 x3 +200 x4 +100 x13 -100 x14 -8400000 x155 >= -8300000
 c192: -700 x3 +700 x4 -8400000 x156 >= -8120000
 c193: -200 x3 +200 x4 -200 x13 +200 x14 -8400000 x157 >= -8220000
 c194: +300 x3 -300 x4 -600 x13 +600 x14 -8400000 x158 >= -8040000
 c195: +300 x3 -300 x4 -8400000 x159 >= -8280000
 c196: +1 x153 +1 x154 +1 x155 +1 x156 +1 x157 +1 x158 +1 x159 = +1
 c197: +200 x3 -200 x5 +200 x13 -200 x15 -8400000 x160 >= -8280000
 c198: +300 x3 -300 x5 -8400000 x160 >= -8250000
 c199: +600 x13 -600 x15 -8400000 x161 >= -8160000
 c200: -200 x3 +200 x5 +200 x13 -200 x15 -8400000 x162 >= -8300000
 c201: -700 x3 +700 x5 -8400000 x163 >= -8190000
 c202: -200 x3 +200 x5 -100 x13 +100 x15 -8400000 x164 >= -8290000
 c203: +400 x3 -400 x5 -800 x13 +800 x15 -8400000 x165 >= -7920000
 c204: +200 x3 -200 x5 -100 x13 +100 x15 -8400000 x166 >= -8250000
 c205: +1 x160 +1 x161 +1 x162 +1 x163 +1 x164 +1 x165 +1 x166 = +1
 c206: +200 x3 -200 x6 +200 x13 -200 x16 -8400000 x167 >= -8280000
 c207: +300 x3 -300 x6 -8400000 x167 >= -8310000
 c208: +700 x13 -700 x16 -8400000 x168 >= -7980000
 c209: -1100 x3 +1100 x6 -8400000 x169 >= -7960000
 c210: -200 x3 +200 x6 -200 x13 +200 x16 -8400000 x170 >= -8220000
 c211: +200 x3 -200 x6 -400 x13 +400 x16 -8400000 x171 >= -8160000
 c212: +200 x3 -200 x6 -200 x13 +200 x16 -8400000 x172 >= -8260000
 c213: +200 x3 -200 x6 +100 x13 -100 x16 -8400000 x173 >= -8350000
 c214: +200 x3 -200 x6 -200 x13 +200 x16 -8400000 x173 >= -8320000
 c215: +1 x167 +1 x168 +1 x169 +1 x170 +1 x171 +1 x172 +1 x173 = +1
 c216: +200 x3 -200 x7 +200 x13 -200 x17 -8400000 x174 >= -8400000
 c217: +300 x3 -300 x7 -8400000 x174 >= -8370000
 c218: +300 x3 -300 x7 +300 x13 -300 x17 -8400000 x175 >= -8310000
 c219: +200 x13 -200 x17 -8400000 x176 >= -8300000
 c220: -1100 x3 +1100 x7 -8400000 x177 >= -7960000
 c221: -100 x3 +100 x7 -200 x13 +200 x17 -8400000 x178 >= -8240000
 c222: +200 x3 -200 x7 -400 x13 +400 x17 -8400000 x179 >= -8160000
 c223: +200 x3 -200 x7 -100 x13 +100 x17 -8400000 x180 >= -8310000
 c224: +1 x174 +1 x175 +1 x176 +1 x177 +1 x178 +1 x179 +1 x180 = +1
 c225: +200 x3 -200 x8 +200 x13 -200 x18 -8400000 x181 >= -8260000
 c226: +300 x3 -300 x8 -8400000 x181 >= -8250000
 c227: +200 x3 -200 x8 +200 x13 -200 x18 -8400000 x182 >= -8200000
 c228: +200 x13 -200 x18 -8400000 x183 >= -8260000
 c229: -200 x3 +200 x8 +400 x13 -400 x18 -8400000 x184 >= -8140000
 c230: -200 x3 +200 x8 +200 x13 -200 x18 -8400000 x185 >= -8240000
 c231: -700 x3 +700 x8 -8400000 x186 >= -8050000
 c232: -300 x3 +300 x8 -300 x13 +300 x18 -8400000 x187 >= -8130000
 c233: +300 x3 -300 x8 -600 x13 +600 x18 -8400000 x188 >= -8040000
 c234: +250 x3 -250 x8 -8400000 x189 >= -8300000
 c235: +150 x3 -150 x8 -300 x13 +300 x18 -8400000 x189 >= -8295000
 c236: +1 x181 +1 x182 +1 x183 +1 x184 +1 x185 +1 x186 +1 x187 +1 x188 +1 x189 = +1
 c237: +200 x3 -200 x9 +200 x13 -200 x19 -8400000 x190 >= -8340000
 c238: +300 x3 -300 x9 -8400000 x190 >= -8310000
 c239: +300 x3 -300 x9 +300 x13 -300 x19 -8400000 x191 >= -8220000
 c240: +200 x13 -200 x19 -8400000 x192 >= -8280000
 c241: -1300 x3 +1300 x9 -8400000 x193 >= -8140000
 c242: +200 x3 -200 x9 -400 x13 +400 x19 -8400000 x194 >= -8160000
 c243: +300 x3 -300 x9 -300 x13 +300 x19 -8400000 x195 >= -8190000
 c244: +1 x190 +1 x191 +1 x192 +1 x193 +1 x194 +1 x195 = +1
 c245: +400 x14 -400 x15 -8400000 x196 >= -8240000
 c246: -100 x4 +100 x5 +200 x14 -200 x15 -8400000 x197 >= -8330000
 c247: -200 x4 +200 x5 +200 x14 -200 x15 -8400000 x198 >= -8320000
 c248: -300 x4 +300 x5 -8400000 x199 >= -8310000
 c249: -200 x4 +200 x5 -100 x14 +100 x15 -8400000 x200 >= -8320000
 c250: -300 x14 +300 x15 -8400000 x201 >= -8280000
 c251: +200 x4 -200 x5 -400 x14 +400 x15 -8400000 x202 >= -8220000
 c252: +400 x4 -400 x5 -200 x14 +200 x15 -8400000 x203 >= -8160000
 c253: +200 x4 -200 x5 +200 x14 -200 x15 -8400000 x204 >= -8220000
 c254: +1 x196 +1 x197 +1 x198 +1 x199 +1 x200 +1 x201 +1 x202 +1 x203 +1 x204 = +1
 c255: +200 x4 -200 x6 +200 x14 -200 x16 -8400000 x205 >= -8220000
 c256: +500 x14 -500 x16 -8400000 x206 >= -8100000
 c257: -100 x4 +100 x6 +200 x14 -200 x16 -8400000 x207 >= -8260000
 c258: -700 x4 +700 x6 -8400000 x208 >= -8120000
 c259: -200 x4 +200 x6 -200 x14 +200 x16 -8400000 x209 >= -8280000
 c260: -300 x14 +300 x16 -8400000 x210 >= -8280000
 c261: +200 x4 -200 x6 -200 x14 +200 x16 -8400000 x211 >= -8300000
 c262: +200 x4 -200 x6 -100 x14 +100 x16 -8400000 x212 >= -8320000
 c263: +133.33399963 x4 -133.3339996 x6 +66.665985107 x14 -66.66598511 x16 -8400000 x213 >= -8346666.4
 c264: +66.666000366 x4 -66.66600037 x6 -66.66598511 x14 +66.665985107 x16 -8400000 x213 >= -8386666.797
 c265: +200 x4 -200 x6 -100 x14 +100 x16 -8400000 x214 >= -8340000
 c266: +1 x205 +1 x206 +1 x207 +1 x208 +1 x209 +1 x210 +1 x211 +1 x212 +1 x213 +1 x214 = +1
 c267: -100 x4 +100 x7 +200 x14 -200 x17 -8400000 x215 >= -8280000
 c268: -700 x4 +700 x7 -8400000 x216 >= -8120000
 c269: -100 x4 +100 x7 -200 x14 +200 x17 -8400000 x217 >= -8300000
 c270: -300 x14 +300 x17 -8400000 x218 >= -8280000
 c271: +400 x4 -400 x7 -200 x14 +200 x17 -8400000 x219 >= -8280000
 c272: +500 x4 -500 x7 +500 x14 -500 x17 -8400000 x220 >= -8250000
 c273: +1 x215 +1 x216 +1 x217 +1 x218 +1 x219 +1 x220 = +1
 c274: +400 x4 -400 x8 +400 x14 -400 x18 -8400000 x221 >= -8000000
 c275: -300 x4 +300 x8 +600 x14 -600 x18 -8400000 x222 >= -8070000
 c276: -200 x4 +200 x8 +200 x14 -200 x18 -8400000 x223 >= -8260000
 c277: -300 x4 +300 x8 -8400000 x224 >= -8250000
 c278: -300 x4 +300 x8 -300 x14 +300 x18 -8400000 x225 >= -8220000
 c279: -300 x14 +300 x18 -8400000 x226 >= -8280000
 c280: +100 x4 -100 x8 -200 x14 +200 x18 -8400000 x227 >= -8310000
 c281: +200 x4 -200 x8 -100 x14 +100 x18 -8400000 x228 >= -8310000
 c282: +100 x4 -100 x8 -8400000 x229 >= -8360000
 c283: +100 x4 -100 x8 -200 x14 +200 x18 -8400000 x229 >= -8360000
 c284: +200 x4 -200 x8 -100 x14 +100 x18 -8400000 x230 >= -8290000
 c285: +1 x221 +1 x222 +1 x223 +1 x224 +1 x225 +1 x226 +1 x227 +1 x228 +1 x229 +1 x230 = +1
 c286: -100 x4 +100 x9 +200 x14 -200 x19 -8400000 x231 >= -8280000
 c287: -900 x4 +900 x9 -8400000 x232 >= -8220000
 c288: -300 x14 +300 x19 -8400000 x233 >= -8280000
 c289: +300 x4 -300 x9 -300 x14 +300 x19 -8400000 x234 >= -8250000
 c290: +200 x4 -200 x9 -100 x14 +100 x19 -8400000 x235 >= -8310000
 c291: +500 x4 -500 x9 +500 x14 -500 x19 -8400000 x236 >= -8100000
 c292: +1 x231 +1 x232 +1 x233 +1 x234 +1 x235 +1 x236 = +1
 c293: +200 x5 -200 x6 +100 x15 -100 x16 -8400000 x237 >= -8280000
 c294: +500 x15 -500 x16 -8400000 x238 >= -8100000
 c295: -200 x5 +200 x6 +400 x15 -400 x16 -8400000 x239 >= -8120000
 c296: -200 x5 +200 x6 +100 x15 -100 x16 -8400000 x240 >= -8240000
 c297: -400 x5 +400 x6 -8400000 x241 >= -8120000
 c298: -200 x5 +200 x6 -200 x15 +200 x16 -8400000 x242 >= -8220000
 c299: -400 x15 +400 x16 -8400000 x243 >= -8240000
 c300: +400 x5 -400 x6 -400 x15 +400 x16 -8400000 x244 >= -8280000
 c301: +200 x5 -200 x6 +100 x15 -100 x16 -8400000 x245 >= -8340000
 c302: +200 x5 -200 x6 -200 x15 +200 x16 -8400000 x245 >= -8400000
 c303: +1 x237 +1 x238 +1 x239 +1 x240 +1 x241 +1 x242 +1 x243 +1 x244 +1 x245 = +1
 c304: -200 x5 +200 x7 +400 x15 -400 x17 -8400000 x246 >= -8160000
 c305: -200 x5 +200 x7 +100 x15 -100 x17 -8400000 x247 >= -8250000
 c306: -400 x5 +400 x7 -8400000 x248 >= -8120000
 c307: -100 x5 +100 x7 -200 x15 +200 x17 -8400000 x249 >= -8270000
 c308: -400 x15 +400 x17 -8400000 x250 >= -8240000
 c309: +200 x5 -200 x7 -200 x15 +200 x17 -8400000 x251 >= -8340000
 c310: +200 x5 -200 x7 -100 x15 +100 x17 -8400000 x252 >= -8360000
 c311: +200 x5 -200 x7 +100 x15 -100 x17 -8400000 x253 >= -8360000
 c312: +300 x5 -300 x7 +300 x15 -300 x17 -8400000 x254 >= -8310000
 c313: +1 x246 +1 x247 +1 x248 +1 x249 +1 x250 +1 x251 +1 x252 +1 x253 +1 x254 = +1
 c314: +200 x5 -200 x8 +100 x15 -100 x18 -8400000 x255 >= -8250000
 c315: +200 x5 -200 x8 +200 x15 -200 x18 -8400000 x256 >= -8200000
 c316: -400 x5 +400 x8 +800 x15 -800 x18 -8400000 x257 >= -7960000
 c317: -200 x5 +200 x8 +200 x15 -200 x18 -8400000 x258 >= -8240000
 c318: -200 x5 +200 x8 +100 x15 -100 x18 -8400000 x259 >= -8250000
 c319: -300 x5 +300 x8 -300 x15 +300 x18 -8400000 x260 >= -8130000
 c320: -400 x15 +400 x18 -8400000 x261 >= -8240000
 c321: +100 x5 -100 x8 -200 x15 +200 x18 -8400000 x262 >= -8330000
 c322: +200 x5 -200 x8 -200 x15 +200 x18 -8400000 x263 >= -8320000
 c323: +150 x5 -150 x8 -8400000 x264 >= -8355000
 c324: +50 x5 -50 x8 -100 x15 +100 x18 -8400000 x264 >= -8390000
 c325: +200 x5 -200 x8 -200 x15 +200 x18 -8400000 x265 >= -8340000
 c326: +1 x255 +1 x256 +1 x257 +1 x258 +1 x259 +1 x260 +1 x261 +1 x262 +1 x263 +1 x264 +1 x265 = +1
 c327: -200 x5 +200 x9 +400 x15 -400 x19 -8400000 x266 >= -8160000
 c328: -200 x5 +200 x9 +100 x15 -100 x19 -8400000 x267 >= -8280000
 c329: -600 x5 +600 x9 -8400000 x268 >= -8100000
 c330: -400 x15 +400 x19 -8400000 x269 >= -8240000
 c331: +500 x5 -500 x9 -500 x15 +500 x19 -8400000 x270 >= -8250000
 c332: +200 x5 -200 x9 +100 x15 -100 x19 -8400000 x271 >= -8310000
 c333: +300 x5 -300 x9 +300 x15 -300 x19 -8400000 x272 >= -8220000
 c334: +1 x266 +1 x267 +1 x268 +1 x269 +1 x270 +1 x271 +1 x272 = +1
 c335: +500 x6 -500 x7 +500 x16 -500 x17 -8400000 x273 >= -8250000
 c336: -200 x6 +200 x7 +200 x16 -200 x17 -8400000 x274 >= -8260000
 c337: -300 x6 +300 x7 -8400000 x275 >= -8280000
 c338: -100 x6 +100 x7 +100 x16 -100 x17 -8400000 x275 >= -8360000
 c339: -400 x6 +400 x7 -8400000 x276 >= -8200000
 c340: -100 x6 +100 x7 -200 x16 +200 x17 -8400000 x277 >= -8250000
 c341: -500 x16 +500 x17 -8400000 x278 >= -8100000
 c342: +200 x6 -200 x7 -100 x16 +100 x17 -8400000 x279 >= -8300000
 c343: +400 x6 -400 x7 -8400000 x280 >= -8280000
 c344: +1 x273 +1 x274 +1 x275 +1 x276 +1 x277 +1 x278 +1 x279 +1 x280 = +1
 c345: +400 x6 -400 x8 +400 x16 -400 x18 -8400000 x281 >= -8000000
 c346: -200 x6 +200 x8 +400 x16 -400 x18 -8400000 x282 >= -8180000
 c347: -400 x6 +400 x8 +400 x16 -400 x18 -8400000 x283 >= -8160000
 c348: -200 x6 +200 x8 -100 x16 +100 x18 -8400000 x284 >= -8310000
 c349: -200 x6 +200 x8 +200 x16 -200 x18 -8400000 x284 >= -8340000
 c350: -300 x6 +300 x8 -300 x16 +300 x18 -8400000 x285 >= -8130000
 c351: -500 x16 +500 x18 -8400000 x286 >= -8100000
 c352: +100 x6 -100 x8 -200 x16 +200 x18 -8400000 x287 >= -8260000
 c353: +300 x6 -300 x8 -8400000 x288 >= -8280000
 c354: -100 x16 +100 x18 -8400000 x288 >= -8380000
 c355: +100 x6 -100 x8 -200 x16 +200 x18 -8400000 x289 >= -8310000
 c356: +400 x6 -400 x8 -8400000 x290 >= -8120000
 c357: +1 x281 +1 x282 +1 x283 +1 x284 +1 x285 +1 x286 +1 x287 +1 x288 +1 x289 +1 x290 = +1
 c358: +500 x6 -500 x9 +500 x16 -500 x19 -8400000 x291 >= -8100000
 c359: -200 x6 +200 x9 +200 x16 -200 x19 -8400000 x292 >= -8280000
 c360: -300 x6 +300 x9 -8400000 x293 >= -8340000
 c361: -100 x6 +100 x9 +100 x16 -100 x19 -8400000 x293 >= -8370000
 c362: -600 x6 +600 x9 -8400000 x294 >= -8220000
 c363: -500 x16 +500 x19 -8400000 x295 >= -8100000
 c364: +300 x6 -300 x9 -300 x16 +300 x19 -8400000 x296 >= -8160000
 c365: +400 x6 -400 x9 -8400000 x297 >= -8200000
 c366: +1 x291 +1 x292 +1 x293 +1 x294 +1 x295 +1 x296 +1 x297 = +1
 c367: +200 x7 -200 x8 +200 x17 -200 x18 -8400000 x298 >= -8180000
 c368: +100 x7 -100 x8 +200 x17 -200 x18 -8400000 x299 >= -8230000
 c369: -200 x7 +200 x8 +400 x17 -400 x18 -8400000 x300 >= -8180000
 c370: -200 x7 +200 x8 +200 x17 -200 x18 -8400000 x301 >= -8280000
 c371: -200 x7 +200 x8 +100 x17 -100 x18 -8400000 x302 >= -8310000
 c372: -600 x7 +600 x8 -600 x17 +600 x18 -8400000 x303 >= -8220000
 c373: +100 x7 -100 x8 -200 x17 +200 x18 -8400000 x304 >= -8280000
 c374: +400 x7 -400 x8 -8400000 x305 >= -8240000
 c375: -100 x7 +100 x8 -100 x17 +100 x18 -8400000 x305 >= -8440000
 c376: +100 x7 -100 x8 -200 x17 +200 x18 -8400000 x306 >= -8330000
 c377: +400 x7 -400 x8 -8400000 x307 >= -8120000
 c378: +1 x298 +1 x299 +1 x300 +1 x301 +1 x302 +1 x303 +1 x304 +1 x305 +1 x306 +1 x307 = +1
 c379: -200 x7 +200 x9 +100 x17 -100 x19 -8400000 x308 >= -8340000
 c380: -600 x7 +600 x9 -8400000 x309 >= -8340000
 c381: -300 x7 +300 x9 -300 x17 +300 x19 -8400000 x310 >= -8310000
 c382: +300 x7 -300 x9 -300 x17 +300 x19 -8400000 x311 >= -8190000
 c383: +400 x7 -400 x9 -8400000 x312 >= -8200000
 c384: +300 x7 -300 x9 +300 x17 -300 x19 -8400000 x313 >= -8190000
 c385: +100 x7 -100 x9 +200 x17 -200 x19 -8400000 x314 >= -8280000
 c386: +1 x308 +1 x309 +1 x310 +1 x311 +1 x312 +1 x313 +1 x314 = +1
 c387: +600 x8 -600 x9 +600 x18 -600 x19 -8400000 x315 >= -8040000
 c388: -100 x8 +100 x9 +200 x18 -200 x19 -8400000 x316 >= -8280000
 c389: -400 x8 +400 x9 -8400000 x317 >= -8320000
 c390: +100 x8 -100 x9 +100 x18 -100 x19 -8400000 x317 >= -8410000
 c391: -100 x8 +100 x9 +200 x18 -200 x19 -8400000 x318 >= -8330000
 c392: -600 x8 +600 x9 -8400000 x319 >= -8100000
 c393: -200 x8 +200 x9 -200 x18 +200 x19 -8400000 x320 >= -8200000
 c394: +200 x8 -200 x9 -400 x18 +400 x19 -8400000 x321 >= -8180000
 c395: +500 x8 -500 x9 -500 x18 +500 x19 -8400000 x322 >= -8100000
 c396: +1 x315 +1 x316 +1 x317 +1 x318 +1 x319 +1 x320 +1 x321 +1 x322 = +1
Bounds
 0 <= x321 <= 1
 0 <= x21 <= 1
 0 <= x22 <= 1
 0 <= x23 <= 1
 0 <= x24 <= 1
 0 <= x25 <= 1
 0 <= x26 <= 1
 0 <= x27 <= 1
 0 <= x28 <= 1
 0 <= x29 <= 1
 0 <= x30 <= 1
 0 <= x31 <= 1
 0 <= x32 <= 1
 0 <= x33 <= 1
 0 <= x34 <= 1
 0 <= x35 <= 1
 0 <= x36 <= 1
 0 <= x37 <= 1
 0 <= x38 <= 1
 0 <= x39 <= 1
 0 <= x40 <= 1
 0 <= x41 <= 1
 0 <= x42 <= 1
 0 <= x43 <= 1
 0 <= x44 <= 1
 0 <= x45 <= 1
 0 <= x46 <= 1
 0 <= x47 <= 1
 0 <= x48 <= 1
 0 <= x49 <= 1
 0 <= x50 <= 1
 0 <= x51 <= 1
 0 <= x52 <= 1
 0 <= x53 <= 1
 0 <= x54 <= 1
 0 <= x55 <= 1
 0 <= x56 <= 1
 0 <= x57 <= 1
 0 <= x58 <= 1
 0 <= x59 <= 1
 0 <= x60 <= 1
 0 <= x61 <= 1
 0 <= x62 <= 1
 0 <= x63 <= 1
 0 <= x64 <= 1
 0 <= x65 <= 1
 0 <= x66 <= 1
 0 <= x67 <= 1
 0 <= x68 <= 1
 0 <= x69 <= 1
 0 <= x70 <= 1
 0 <= x71 <= 1
 0 <= x72 <= 1
 0 <= x73 <= 1
 0 <= x74 <= 1
 0 <= x75 <= 1
 0 <= x76 <= 1
 0 <= x77 <= 1
 0 <= x78 <= 1
 0 <= x79 <= 1
 0 <= x80 <= 1
 0 <= x81 <= 1
 0 <= x82 <= 1
 0 <= x83 <= 1
 0 <= x84 <= 1
 0 <= x85 <= 1
 0 <= x86 <= 1
 0 <= x87 <= 1
 0 <= x88 <= 1
 0 <= x89 <= 1
 0 <= x90 <= 1
 0 <= x91 <= 1
 0 <= x92 <= 1
 0 <= x93 <= 1
 0 <= x94 <= 1
 0 <= x95 <= 1
 0 <= x96 <= 1
 0 <= x97 <= 1
 0 <= x98 <= 1
 0 <= x99 <= 1
 0 <= x100 <= 1
 0 <= x101 <= 1
 0 <= x102 <= 1
 0 <= x103 <= 1
 0 <= x104 <= 1
 0 <= x105 <= 1
 0 <= x106 <= 1
 0 <= x107 <= 1
 0 <= x108 <= 1
 0 <= x109 <= 1
 0 <= x110 <= 1
 0 <= x111 <= 1
 0 <= x112 <= 1
 0 <= x113 <= 1
 0 <= x114 <= 1
 0 <= x115 <= 1
 0 <= x116 <= 1
 0 <= x117 <= 1
 0 <= x118 <= 1
 0 <= x119 <= 1
 0 <= x120 <= 1
 0 <= x121 <= 1
 0 <= x122 <= 1
 0 <= x123 <= 1
 0 <= x124 <= 1
 0 <= x125 <= 1
 0 <= x126 <= 1
 0 <= x127 <= 1
 0 <= x128 <= 1
 0 <= x129 <= 1
 0 <= x130 <= 1
 0 <= x131 <= 1
 0 <= x132 <= 1
 0 <= x133 <= 1
 0 <= x134 <= 1
 0 <= x135 <= 1
 0 <= x136 <= 1
 0 <= x137 <= 1
 0 <= x138 <= 1
 0 <= x139 <= 1
 0 <= x140 <= 1
 0 <= x141 <= 1
 0 <= x142 <= 1
 0 <= x143 <= 1
 0 <= x144 <= 1
 0 <= x145 <= 1
 0 <= x146 <= 1
 0 <= x147 <= 1
 0 <= x148 <= 1
 0 <= x149 <= 1
 0 <= x150 <= 1
 0 <= x151 <= 1
 0 <= x152 <= 1
 0 <= x153 <= 1
 0 <= x154 <= 1
 0 <= x155 <= 1
 0 <= x156 <= 1
 0 <= x157 <= 1
 0 <= x158 <= 1
 0 <= x159 <= 1
 0 <= x160 <= 1
 0 <= x161 <= 1
 0 <= x162 <= 1
 0 <= x163 <= 1
 0 <= x164 <= 1
 0 <= x165 <= 1
 0 <= x166 <= 1
 0 <= x167 <= 1
 0 <= x168 <= 1
 0 <= x169 <= 1
 0 <= x170 <= 1
 0 <= x171 <= 1
 0 <= x172 <= 1
 0 <= x173 <= 1
 0 <= x174 <= 1
 0 <= x175 <= 1
 0 <= x176 <= 1
 0 <= x177 <= 1
 0 <= x178 <= 1
 0 <= x179 <= 1
 0 <= x180 <= 1
 0 <= x181 <= 1
 0 <= x182 <= 1
 0 <= x183 <= 1
 0 <= x184 <= 1
 0 <= x185 <= 1
 0 <= x186 <= 1
 0 <= x187 <= 1
 0 <= x188 <= 1
 0 <= x189 <= 1
 0 <= x190 <= 1
 0 <= x191 <= 1
 0 <= x192 <= 1
 0 <= x193 <= 1
 0 <= x194 <= 1
 0 <= x195 <= 1
 0 <= x196 <= 1
 0 <= x197 <= 1
 0 <= x198 <= 1
 0 <= x199 <= 1
 0 <= x200 <= 1
 0 <= x201 <= 1
 0 <= x202 <= 1
 0 <= x203 <= 1
 0 <= x204 <= 1
 0 <= x205 <= 1
 0 <= x206 <= 1
 0 <= x207 <= 1
 0 <= x208 <= 1
 0 <= x209 <= 1
 0 <= x210 <= 1
 0 <= x211 <= 1
 0 <= x212 <= 1
 0 <= x213 <= 1
 0 <= x214 <= 1
 0 <= x215 <= 1
 0 <= x216 <= 1
 0 <= x217 <= 1
 0 <= x218 <= 1
 0 <= x219 <= 1
 0 <= x220 <= 1
 0 <= x221 <= 1
 0 <= x222 <= 1
 0 <= x223 <= 1
 0 <= x224 <= 1
 0 <= x225 <= 1
 0 <= x226 <= 1
 0 <= x227 <= 1
 0 <= x228 <= 1
 0 <= x229 <= 1
 0 <= x230 <= 1
 0 <= x231 <= 1
 0 <= x232 <= 1
 0 <= x233 <= 1
 0 <= x234 <= 1
 0 <= x235 <= 1
 0 <= x236 <= 1
 0 <= x237 <= 1
 0 <= x238 <= 1
 0 <= x239 <= 1
 0 <= x240 <= 1
 0 <= x241 <= 1
 0 <= x242 <= 1
 0 <= x243 <= 1
 0 <= x244 <= 1
 0 <= x245 <= 1
 0 <= x246 <= 1
 0 <= x247 <= 1
 0 <= x248 <= 1
 0 <= x249 <= 1
 0 <= x250 <= 1
 0 <= x251 <= 1
 0 <= x252 <= 1
 0 <= x253 <= 1
 0 <= x254 <= 1
 0 <= x255 <= 1
 0 <= x256 <= 1
 0 <= x257 <= 1
 0 <= x258 <= 1
 0 <= x259 <= 1
 0 <= x260 <= 1
 0 <= x261 <= 1
 0 <= x262 <= 1
 0 <= x263 <= 1
 0 <= x264 <= 1
 0 <= x265 <= 1
 0 <= x266 <= 1
 0 <= x267 <= 1
 0 <= x268 <= 1
 0 <= x269 <= 1
 0 <= x270 <= 1
 0 <= x271 <= 1
 0 <= x272 <= 1
 0 <= x273 <= 1
 0 <= x274 <= 1
 0 <= x275 <= 1
 0 <= x276 <= 1
 0 <= x277 <= 1
 0 <= x278 <= 1
 0 <= x279 <= 1
 0 <= x280 <= 1
 0 <= x281 <= 1
 0 <= x282 <= 1
 0 <= x283 <= 1
 0 <= x284 <= 1
 0 <= x285 <= 1
 0 <= x286 <= 1
 0 <= x287 <= 1
 0 <= x288 <= 1
 0 <= x289 <= 1
 0 <= x290 <= 1
 0 <= x291 <= 1
 0 <= x292 <= 1
 0 <= x293 <= 1
 0 <= x294 <= 1
 0 <= x295 <= 1
 0 <= x296 <= 1
 0 <= x297 <= 1
 0 <= x298 <= 1
 0 <= x299 <= 1
 0 <= x300 <= 1
 0 <= x301 <= 1
 0 <= x302 <= 1
 0 <= x303 <= 1
 0 <= x304 <= 1
 0 <= x305 <= 1
 0 <= x306 <= 1
 0 <= x307 <= 1
 0 <= x308 <= 1
 0 <= x309 <= 1
 0 <= x310 <= 1
 0 <= x311 <= 1
 0 <= x312 <= 1
 0 <= x313 <= 1
 0 <= x314 <= 1
 0 <= x315 <= 1
 0 <= x316 <= 1
 0 <= x317 <= 1
 0 <= x318 <= 1
 0 <= x319 <= 1
 0 <= x320 <= 1
 0 <= x322 <= 1
 200 <= x3
 200 <= x4
 100 <= x5
 200 <= x6
 200 <= x7
 300 <= x8
 0 <= x11 <= 700
 0 <= x12 <= 700
 0 <= x13 <= 500
 0 <= x14 <= 800
 0 <= x15 <= 800
 0 <= x16 <= 600
 0 <= x17 <= 700
 0 <= x18 <= 500
 0 <= x19 <= 600
 1 <= x20 <= 1
Binaries
 x321 x21 x22 x23 x24 x25 x26 x27 x28 x29 x30 x31 x32 x33 x34 x35 x36 x37 x38 x39 x40 x41 x42 x43 x44
 x45 x46 x47 x48 x49 x50 x51 x52 x53 x54 x55 x56 x57 x58 x59 x60 x61 x62 x63 x64 x65 x66 x67 x68 x69 x70
 x71 x72 x73 x74 x75 x76 x77 x78 x79 x80 x81 x82 x83 x84 x85 x86 x87 x88 x89 x90 x91 x92 x93 x94 x95 x96
 x97 x98 x99 x100 x101 x102 x103 x104 x105 x106 x107 x108 x109 x110 x111 x112 x113 x114 x115 x116 x117
 x118 x119 x120 x121 x122 x123 x124 x125 x126 x127 x128 x129 x130 x131 x132 x133 x134 x135 x136 x137 x138
 x139 x140 x141 x142 x143 x144 x145 x146 x147 x148 x149 x150 x151 x152 x153 x154 x155 x156 x157 x158 x159
 x160 x161 x162 x163 x164 x165 x166 x167 x168 x169 x170 x171 x172 x173 x174 x175 x176 x177 x178 x179 x180
 x181 x182 x183 x184 x185 x186 x187 x188 x189 x190 x191 x192 x193 x194 x195 x196 x197 x198 x199 x200 x201
 x202 x203 x204 x205 x206 x207 x208 x209 x210 x211 x212 x213 x214 x215 x216 x217 x218 x219 x220 x221 x222
 x223 x224 x225 x226 x227 x228 x229 x230 x231 x232 x233 x234 x235 x236 x237 x238 x239 x240 x241 x242 x243
 x244 x245 x246 x247 x248 x249 x250 x251 x252 x253 x254 x255 x256 x257 x258 x259 x260 x261 x262 x263 x264
 x265 x266 x267 x268 x269 x270 x271 x272 x273 x274 x275 x276 x277 x278 x279 x280 x281 x282 x283 x284 x285
 x286 x287 x288 x289 x290 x291 x292 x293 x294 x295 x296 x297 x298 x299 x300 x301 x302 x303 x304 x305 x306
 x307 x308 x309 x310 x311 x312 x313 x314 x315 x316 x317 x318 x319 x320 x322
End
